StudentsNr = 10;
InstructorsNr = 70;
DaysNr = 1;
SlotsPerDay = 60;
AvailabilitySlotsLenght = 60;
RoomNr = 2;
ProgrammNr = 1;
DegreeNr = 3;
RolesNr = 3;
CoursesNr = 10;
InstructorsProgramm = [{1}, {1}, {1}, {1}, {1}, {1}, {1}, {1}, {1}, {1}, {1}, {1}, {1}, {1}, {1}, {1}, {1}, {1}, {1}, {1}, {1}, {1}, {1}, {1}, {1}, {1}, {1}, {1}, {1}, {1}, {1}, {1}, {1}, {1}, {1}, {1}, {1}, {1}, {1}, {1}, {1}, {1}, {1}, {1}, {1}, {1}, {1}, {1}, {1}, {1}, {1}, {1}, {1}, {1}, {1}, {1}, {1}, {1}, {1}, {1}, {1}, {1}, {1}, {1}, {1}, {1}, {1}, {1}, {1}, {1}];
InstructorRolesPerProgramm = [|{1, 2, 3, 4, 8, 9, 12, 13, 14, 16, 17, 20, 21, 22, 23, 25, 26, 29, 30, 32, 33, 34, 35, 36, 39, 41, 43, 45, 46, 54, 56, 58, 62, 63, 64, 67, 68, 70}, {2, 3, 4, 6, 7, 9, 10, 13, 14, 16, 17, 18, 19, 21, 23, 24, 26, 28, 29, 33, 34, 35, 37, 38, 40, 45, 46, 50, 52, 53, 57, 59, 62, 64, 65, 66, 67, 69}, {1, 2, 12, 15, 16, 18, 21, 22, 23, 24, 27, 29, 32, 38, 41, 43, 49, 52, 53, 54, 61, 62, 65, 66, 69}|];
InstructorsAvailability = [|0, |1, |1, |1, |0, |0, |1, |1, |1, |0, |1, |0, |1, |1, |0, |0, |0, |0, |1, |0, |1, |1, |0, |0, |1, |0, |1, |1, |1, |1, |1, |0, |0, |0, |1, |0, |0, |0, |0, |1, |0, |1, |0, |1, |1, |0, |1, |1, |1, |1, |0, |1, |1, |0, |0, |1, |0, |0, |0, |0, |0, |0, |1, |1, |0, |1, |0, |0, |0, |0|];
StudentsProgramm = [1, 1, 1, 1, 1, 1, 1, 1, 1, 1];
StudentsDegree = [2, 1, 2, 1, 2, 3, 3, 3, 3, 1];
StudentsSupervisorId = [10, 19, 65, 52, 69, 1, 26, 5, 2, 20];
StudentsCourseIds = [{1, 2, 3, 4, 5, 6, 7, 8, 9, 10}, {1, 7, 9}, {1, 2, 3, 4, 5, 6, 7, 8, 9, 10}, {6, 9, 10}, {1, 2, 3, 4, 5, 6, 7, 8, 9, 10}, {1, 2, 3, 4, 5, 7, 8, 10}, {1, 2, 4, 5, 7, 8, 9, 10}, {1, 2, 4, 5, 7, 8, 9, 10}, {1, 2, 3, 4, 5, 6, 7, 9}, {3, 4, 7}];
StudentsAvailability = [|0, |0, |1, |1, |0, |1, |0, |1, |1, |0|];
TheoryticalMinCard = [0, 0, 0, 0, 0, 0, 0, 0, 0, 0];
CoursesInstructorIds = [{2, 10, 11, 15, 17, 21, 23, 25, 28, 30, 34, 38, 39, 41, 42, 46, 48, 50, 52, 55, 56, 57, 64, 65, 69}, {1, 6, 9, 14, 15, 16, 18, 19, 21, 23, 26, 28, 30, 35, 39, 40, 42, 43, 48, 57, 60, 64, 65}, {2, 4, 5, 6, 7, 11, 13, 14, 16, 17, 19, 21, 23, 24, 27, 28, 29, 36, 37, 39, 40, 41, 42, 45, 46, 47, 48, 50, 51, 52, 53, 58, 59, 60, 61, 62, 64, 67, 69}, {9, 57}, {4, 5, 10, 12, 13, 15, 17, 18, 20, 25, 26, 28, 35, 39, 40, 45, 46, 47, 50, 52, 57, 60, 62, 63, 64, 67, 70}, {24, 29, 30, 34, 36, 39, 41, 44, 47, 50, 53, 54, 56, 64, 65}, {3, 12, 17, 21, 30, 31, 34, 43, 44, 45, 46, 47, 48, 49, 53, 54, 57, 59, 61, 64, 69, 70}, {1, 3, 5, 6, 7, 8, 9, 10, 11, 12, 13, 14, 18, 19, 20, 21, 23, 26, 27, 29, 30, 31, 32, 35, 36, 37, 38, 39, 40, 43, 46, 47, 51, 52, 55, 56, 58, 63, 64, 66, 67, 68, 69}, {5, 9, 20, 21, 26, 32, 38, 39, 42, 43, 48, 55, 56, 59, 69}, {1, 3, 4, 13, 14, 17, 19, 20, 21, 23, 26, 28, 29, 32, 33, 35, 37, 38, 42, 43, 45, 48, 49, 50, 51, 52, 54, 57, 58, 59, 62, 63, 66, 67, 68, 69, 70}];
RolesDemands = [24, 33, 21];
RolesContinuity = [2];
ExamLen = [1, 1, 1, 1, 1, 1, 1, 1, 1, 1];
LunchTsMinLen = 1;
LunchStarts = [24..43];
SupervisorAvailable = 5;
OptimalLunchLenght = [2, 1];
OptimalStartTs = [1, 0];
OptimalFinishTs = [0, 60];
MinimizeRooms = 300;
RolesSoftContinuity = [|1, 2, 3|3, 1, 4|];
SameDegreeInRoom = 0;
Mergeability = 1;
